Co                                      
   1.00000000000000     
     1.3458288293357819   -2.3310439107005183    0.0000000000000000
     1.3458288293357819    2.3310439107005183    0.0000000000000000
     0.0000000000000000    0.0000000000000000    4.3417711019690559
   Co
     2
Direct
  0.3333333333333357  0.6666666666666643  0.2500000000000000
  0.6666666666666643  0.3333333333333357  0.7500000000000000
 
  0.00000000E+00  0.00000000E+00  0.00000000E+00
  0.00000000E+00  0.00000000E+00  0.00000000E+00
