Co 
 1.0000000000000000
     1.3458288293357819   -2.3310439107005183   -0.0000000000000000
     1.3458288293357819    2.3310439107005183    0.0000000000000000
     0.0000000000000000    0.0000000000000000    4.3417711019690559
 Co 
   2
Cartesian
  1.3458288293357819  0.7770146369001616  1.0854427754922640
  1.3458288293357819 -0.7770146369001617  3.2563283264767917
