Co 
 1.0000000000000000
     2.4924647474876593    0.0000000000000000   -0.0000000000000000
    -1.2462323737438297    2.1585377893614801    0.0000000000000000
    -0.0000000000000000   -0.0000000000000000    4.0327065196231446
 Co 
   2
Cartesian
  0.0000000000000000  0.0000000000000000  0.0000000000000000
  0.0000000000000088  1.4390251929076483  2.0163532598115723
