Co 
 1.0000000000000000
     1.2461378049405387   -2.1583739913893685   -0.0000000000000000
     1.2461378049405387    2.1583739913893685    0.0000000000000000
     0.0000000000000000    0.0000000000000000    4.0201584277491254
 Co 
   2
Cartesian
  1.2461378049405387  0.7194579971297792  1.0050396069372813
  1.2461378049405387 -0.7194579971297793  3.0151188208118440
