Co 
 1.0000000000000000
     0.0000000000000000    1.7549999999999999    1.7549999999999999
     1.7549999999999999    0.0000000000000000    1.7549999999999999
     1.7549999999999999    1.7549999999999999    0.0000000000000000
 Co 
   1
Cartesian
  0.0000000000000000  0.0000000000000000  0.0000000000000000
