Co 
 1.0000000000000000
     0.0000000000000000    1.7345550166891324    1.7345550166891324
     1.7345550166891324    0.0000000000000000    1.7345550166891324
     1.7345550166891324    1.7345550166891324    0.0000000000000000
 Co 
   1
Cartesian
  0.0000000000000000  0.0000000000000000  0.0000000000000000
