Pt                                      
   1.00000000000000     
     0.0000000000000000    1.7809637664919389    1.7809637664919389
     1.7809637664919387    0.0000000000000000    1.7809637664919389
     1.7809637664919387    1.7809637664919389    0.0000000000000000
   Pt
     1
Direct
  0.0000000000000000  0.0000000000000000  0.0000000000000000
 
  0.00000000E+00  0.00000000E+00  0.00000000E+00
