Pt 
 1.0000000000000000
    -0.0000000000000000    1.7809637664919389    1.7809637664919389
     1.7809637664919387    0.0000000000000000    1.7809637664919389
     1.7809637664919387    1.7809637664919389   -0.0000000000000000
 Pt 
   1
Cartesian
  0.0000000000000000  0.0000000000000000  0.0000000000000000
