Pt                                      
   1.00000000000000     
     2.9732098916810350    0.0000000000000000    0.0000000000000000
    -1.4866049458405175    2.5748752969789548    0.0000000000000000
     0.0000000000000000    0.0000000000000000    5.1510168471112872
   Pt
     2
Direct
  0.0000000000000000  0.0000000000000000  0.0000000000000000
  0.3333333333333357  0.6666666666666643  0.5000000000000000
 
  0.00000000E+00  0.00000000E+00  0.00000000E+00
  0.00000000E+00  0.00000000E+00  0.00000000E+00
