Pt 
 1.0000000000000000
     2.9732098916810350   -0.0000000000000000   -0.0000000000000000
    -1.4866049458405175    2.5748752969789548   -0.0000000000000000
     0.0000000000000000    0.0000000000000000    5.1510168471112872
 Pt 
   2
Cartesian
  0.0000000000000000  0.0000000000000000  0.0000000000000000
  0.0000000000000106  1.7165835313192972  2.5755084235556436
