Pt 
 1.0000000000000000
     2.7529721219268839   -0.0000000000000000   -0.0000000000000000
    -1.3764860609634419    2.3841437934990322   -0.0000000000000000
     0.0000000000000000    0.0000000000000000    4.7694600436215620
 Pt 
   2
Cartesian
  0.0000000000000000  0.0000000000000000  0.0000000000000000
  0.0000000000000098  1.5894291956660158  2.3847300218107810
