Pt                                      
   1.00000000000000     
     2.7254424007076152    0.0000000000000000    0.0000000000000000
    -1.3627212003538076    2.3603023555640417    0.0000000000000000
     0.0000000000000000    0.0000000000000000    4.7217654431853466
   Pt
     2
Direct
  0.0000000000000000  0.0000000000000000  0.0000000000000000
  0.3333333333333357  0.6666666666666643  0.5000000000000000
 
  0.00000000E+00  0.00000000E+00  0.00000000E+00
  0.00000000E+00  0.00000000E+00  0.00000000E+00
