Pt 
 1.0000000000000000
     2.7254424007076152   -0.0000000000000000   -0.0000000000000000
    -1.3627212003538076    2.3603023555640417   -0.0000000000000000
     0.0000000000000000    0.0000000000000000    4.7217654431853466
 Pt 
   2
Cartesian
  0.0000000000000000  0.0000000000000000  0.0000000000000000
  0.0000000000000097  1.5735349037093556  2.3608827215926733
