Co                                      
   1.00000000000000     
     1.1215240244464848   -1.9425365922504316    0.0000000000000000
     1.1215240244464848    1.9425365922504316    0.0000000000000000
     0.0000000000000000    0.0000000000000000    3.6181425849742128
   Co
     2
Direct
  0.3333333333333357  0.6666666666666643  0.2500000000000000
  0.6666666666666643  0.3333333333333357  0.7500000000000000
 
  0.00000000E+00  0.00000000E+00  0.00000000E+00
  0.00000000E+00  0.00000000E+00  0.00000000E+00
