Co 
 1.0000000000000000
     1.1215240244464848   -1.9425365922504316   -0.0000000000000000
     1.1215240244464848    1.9425365922504316    0.0000000000000000
     0.0000000000000000    0.0000000000000000    3.6181425849742128
 Co 
   2
Cartesian
  1.1215240244464848  0.6475121974168010  0.9045356462435532
  1.1215240244464848 -0.6475121974168015  2.7136069387306598
