Pt                                      
   1.00000000000000     
     2.6428532370498083    0.0000000000000000    0.0000000000000000
    -1.3214266185249042    2.2887780417590706    0.0000000000000000
     0.0000000000000000    0.0000000000000000    4.5786816418766989
   Pt
     2
Direct
  0.0000000000000000  0.0000000000000000  0.0000000000000000
  0.3333333333333357  0.6666666666666643  0.5000000000000000
 
  0.00000000E+00  0.00000000E+00  0.00000000E+00
  0.00000000E+00  0.00000000E+00  0.00000000E+00
