Pt 
 1.0000000000000000
     2.7220372323710600   -0.0000000000000000   -0.0000000000000000
    -1.3610186161855300    2.3573533932804227   -0.0000000000000000
     0.0000000000000000    0.0000000000000000    4.7158660683992197
 Pt 
   2
Cartesian
  0.0000000000000000  0.0000000000000000  0.0000000000000000
  0.0000000000000097  1.5715689288536097  2.3579330341996099
