Pt 
 1.0000000000000000
    -0.0000000000000000    1.9590601431411327    1.9590601431411327
     1.9590601431411325    0.0000000000000000    1.9590601431411327
     1.9590601431411325    1.9590601431411327   -0.0000000000000000
 Pt 
   1
Cartesian
  0.0000000000000000  0.0000000000000000  0.0000000000000000
