Co 
 1.0000000000000000
     1.2336764268911333   -2.1367902514754746   -0.0000000000000000
     1.2336764268911333    2.1367902514754746    0.0000000000000000
     0.0000000000000000    0.0000000000000000    3.9799568434716339
 Co 
   2
Cartesian
  1.2336764268911333  0.7122634171584813  0.9949892108679085
  1.2336764268911333 -0.7122634171584814  2.9849676326037256
