Co 
 1.0000000000000000
     2.5333320888359108    0.0000000000000000   -0.0000000000000000
    -1.2666660444179554    2.1939299451541960    0.0000000000000000
    -0.0000000000000000   -0.0000000000000000    4.0988282146484716
 Co 
   2
Cartesian
  0.0000000000000000  0.0000000000000000  0.0000000000000000
  0.0000000000000090  1.4626199634361254  2.0494141073242358
