Co                                      
   1.00000000000000     
     2.5198566632920003    0.0000000000000000    0.0000000000000000
    -1.2599283316460002    2.1822598843063639    0.0000000000000000
     0.0000000000000000    0.0000000000000000    4.0770255245601170
   Co
     2
Direct
  0.0000000000000000  0.0000000000000000  0.0000000000000000
  0.3333333333333357  0.6666666666666643  0.5000000000000000
 
  0.00000000E+00  0.00000000E+00  0.00000000E+00
  0.00000000E+00  0.00000000E+00  0.00000000E+00
