Co 
 1.0000000000000000
     0.0000000000000000    1.9296943123763015    1.9296943123763015
     1.9296943123763015    0.0000000000000000    1.9296943123763015
     1.9296943123763015    1.9296943123763015    0.0000000000000000
 Co 
   1
Cartesian
  0.0000000000000000  0.0000000000000000  0.0000000000000000
