Pt 
 1.0000000000000000
    -0.0000000000000000    1.8601177116693586    1.8601177116693586
     1.8601177116693584    0.0000000000000000    1.8601177116693586
     1.8601177116693584    1.8601177116693586   -0.0000000000000000
 Pt 
   1
Cartesian
  0.0000000000000000  0.0000000000000000  0.0000000000000000
