Pt                                      
   1.00000000000000     
     2.7981108351393416    0.0000000000000000    0.0000000000000000
    -1.3990554175696708    2.4232350658351609    0.0000000000000000
     0.0000000000000000    0.0000000000000000    4.8476618123109683
   Pt
     2
Direct
  0.0000000000000000  0.0000000000000000  0.0000000000000000
  0.3333333333333357  0.6666666666666643  0.5000000000000000
 
  0.00000000E+00  0.00000000E+00  0.00000000E+00
  0.00000000E+00  0.00000000E+00  0.00000000E+00
