Pt                                      
   1.00000000000000     
     2.7529721219268839   -0.0000000000000000   -0.0000000000000000
    -1.3764860609634419    2.3841437934990322   -0.0000000000000000
     0.0000000000000000    0.0000000000000000    4.7694600436215620
   Pt
     2
Direct
  0.0000000000000000  0.0000000000000000  0.0000000000000000
  0.3333333333333357  0.6666666666666643  0.5000000000000000
 
  0.00000000E+00  0.00000000E+00  0.00000000E+00
  0.00000000E+00  0.00000000E+00  0.00000000E+00
