Co                                      
   1.00000000000000     
     1.2391759959652842   -2.1463157845316383    0.0000000000000000
     1.2391759959652842    2.1463157845316383    0.0000000000000000
     0.0000000000000000    0.0000000000000000    3.9976989734951194
   Co
     2
Direct
  0.3333333333333357  0.6666666666666643  0.2500000000000000
  0.6666666666666643  0.3333333333333357  0.7500000000000000
 
  0.00000000E+00  0.00000000E+00  0.00000000E+00
  0.00000000E+00  0.00000000E+00  0.00000000E+00
