Pt                                      
   1.00000000000000     
     0.0000000000000000    1.9392716568467780    1.9392716568467780
     1.9392716568467778    0.0000000000000000    1.9392716568467780
     1.9392716568467778    1.9392716568467780    0.0000000000000000
   Pt
     1
Direct
  0.0000000000000000  0.0000000000000000  0.0000000000000000
 
  0.00000000E+00  0.00000000E+00  0.00000000E+00
