Co 
 1.0000000000000000
     0.0000000000000000    1.7245284631202638    1.7245284631202638
     1.7245284631202638    0.0000000000000000    1.7245284631202638
     1.7245284631202638    1.7245284631202638    0.0000000000000000
 Co 
   1
Cartesian
  0.0000000000000000  0.0000000000000000  0.0000000000000000
