Pt                                      
   1.00000000000000     
     0.0000000000000000    2.0005959601055281    2.0005959601055281
     2.0005959601055276    0.0000000000000000    2.0005959601055281
     2.0005959601055276    2.0005959601055281    0.0000000000000000
   Pt
     1
Direct
  0.0000000000000000  0.0000000000000000  0.0000000000000000
 
  0.00000000E+00  0.00000000E+00  0.00000000E+00
