Pt                                      
   1.00000000000000     
     0.0000000000000000    2.0382140883185524    2.0382140883185524
     2.0382140883185520    0.0000000000000000    2.0382140883185524
     2.0382140883185520    2.0382140883185524    0.0000000000000000
   Pt
     1
Direct
  0.0000000000000000  0.0000000000000000  0.0000000000000000
 
  0.00000000E+00  0.00000000E+00  0.00000000E+00
