Co                                      
   1.00000000000000     
     1.1464467805452956   -1.9857040720782191    0.0000000000000000
     1.1464467805452956    1.9857040720782191    0.0000000000000000
     0.0000000000000000    0.0000000000000000    3.6985457535291957
   Co
     2
Direct
  0.3333333333333357  0.6666666666666643  0.2500000000000000
  0.6666666666666643  0.3333333333333357  0.7500000000000000
 
  0.00000000E+00  0.00000000E+00  0.00000000E+00
  0.00000000E+00  0.00000000E+00  0.00000000E+00
