Co 
 1.0000000000000000
     1.1464467805452956   -1.9857040720782191   -0.0000000000000000
     1.1464467805452956    1.9857040720782191    0.0000000000000000
     0.0000000000000000    0.0000000000000000    3.6985457535291957
 Co 
   2
Cartesian
  1.1464467805452956  0.6619013573593969  0.9246364383822990
  1.1464467805452956 -0.6619013573593970  2.7739093151468968
