Pt 
 1.0000000000000000
     2.7805018431461526   -0.0000000000000000   -0.0000000000000000
    -1.3902509215730763    2.4079852314340227   -0.0000000000000000
     0.0000000000000000    0.0000000000000000    4.8171546440577773
 Pt 
   2
Cartesian
  0.0000000000000000  0.0000000000000000  0.0000000000000000
  0.0000000000000099  1.6053234876226761  2.4085773220288886
