Pt                                      
   1.00000000000000     
     0.0000000000000000    2.0975795472016170    2.0975795472016170
     2.0975795472016170    0.0000000000000000    2.0975795472016170
     2.0975795472016170    2.0975795472016170    0.0000000000000000
   Pt
     1
Direct
  0.0000000000000000  0.0000000000000000  0.0000000000000000
 
  0.00000000E+00  0.00000000E+00  0.00000000E+00
