Pt 
 1.0000000000000000
    -0.0000000000000000    2.0975795472016170    2.0975795472016170
     2.0975795472016170    0.0000000000000000    2.0975795472016170
     2.0975795472016170    2.0975795472016170   -0.0000000000000000
 Pt 
   1
Cartesian
  0.0000000000000000  0.0000000000000000  0.0000000000000000
