Co                                      
   1.00000000000000     
     2.5333320888359108    0.0000000000000000    0.0000000000000000
    -1.2666660444179554    2.1939299451541960    0.0000000000000000
     0.0000000000000000    0.0000000000000000    4.0988282146484716
   Co
     2
Direct
  0.0000000000000000  0.0000000000000000  0.0000000000000000
  0.3333333333333357  0.6666666666666643  0.5000000000000000
 
  0.00000000E+00  0.00000000E+00  0.00000000E+00
  0.00000000E+00  0.00000000E+00  0.00000000E+00
