Co 
 1.0000000000000000
     1.3084446951875657   -2.2662926909588368   -0.0000000000000000
     1.3084446951875657    2.2662926909588368    0.0000000000000000
     0.0000000000000000    0.0000000000000000    4.2211663491365821
 Co 
   2
Cartesian
  1.3084446951875657  0.7554308969862676  1.0552915872841455
  1.3084446951875657 -0.7554308969862686  3.1658747618524363
