Co 
 1.0000000000000000
     0.0000000000000000    1.7639598393466509    1.7639598393466509
     1.7639598393466509    0.0000000000000000    1.7639598393466509
     1.7639598393466509    1.7639598393466509    0.0000000000000000
 Co 
   1
Cartesian
  0.0000000000000000  0.0000000000000000  0.0000000000000000
