Pt 
 1.0000000000000000
    -0.0000000000000000    1.9788486294354877    1.9788486294354877
     1.9788486294354874    0.0000000000000000    1.9788486294354877
     1.9788486294354874    1.9788486294354877   -0.0000000000000000
 Pt 
   1
Cartesian
  0.0000000000000000  0.0000000000000000  0.0000000000000000
