Pt                                      
   1.00000000000000     
     0.0000000000000000    2.0184256020241973    2.0184256020241973
     2.0184256020241973    0.0000000000000000    2.0184256020241973
     2.0184256020241973    2.0184256020241973    0.0000000000000000
   Pt
     1
Direct
  0.0000000000000000  0.0000000000000000  0.0000000000000000
 
  0.00000000E+00  0.00000000E+00  0.00000000E+00
