Pt 
 1.0000000000000000
    -0.0000000000000000    2.0184256020241973    2.0184256020241973
     2.0184256020241973    0.0000000000000000    2.0184256020241973
     2.0184256020241973    2.0184256020241973   -0.0000000000000000
 Pt 
   1
Cartesian
  0.0000000000000000  0.0000000000000000  0.0000000000000000
