Pt                                      
   1.00000000000000     
     2.7681822213249494    0.0000000000000000    0.0000000000000000
    -1.3840911106624747    2.3973161259718432    0.0000000000000000
     0.0000000000000000    0.0000000000000000    4.7958111863595461
   Pt
     2
Direct
  0.0000000000000000  0.0000000000000000  0.0000000000000000
  0.3333333333333357  0.6666666666666643  0.5000000000000000
 
  0.00000000E+00  0.00000000E+00  0.00000000E+00
  0.00000000E+00  0.00000000E+00  0.00000000E+00
