Pt 
 1.0000000000000000
     2.7681822213249494   -0.0000000000000000   -0.0000000000000000
    -1.3840911106624747    2.3973161259718432   -0.0000000000000000
     0.0000000000000000    0.0000000000000000    4.7958111863595461
 Pt 
   2
Cartesian
  0.0000000000000000  0.0000000000000000  0.0000000000000000
  0.0000000000000099  1.5982107506478900  2.3979055931797730
