Co 
 1.0000000000000000
     1.1962922927429172   -2.0720390317337936   -0.0000000000000000
     1.1962922927429172    2.0720390317337936    0.0000000000000000
     0.0000000000000000    0.0000000000000000    3.8593520906391601
 Co 
   2
Cartesian
  1.1962922927429174  0.6906796772445879  0.9648380226597900
  1.1962922927429174 -0.6906796772445880  2.8945140679793702
