Co 
 1.0000000000000000
     1.2321350712912815   -2.1341205452640009   -0.0000000000000000
     1.2321350712912815    2.1341205452640009    0.0000000000000000
     0.0000000000000000    0.0000000000000000    3.9749842845135999
 Co 
   2
Cartesian
  1.2321350712912815  0.7113735150879901  0.9937460711284000
  1.2321350712912815 -0.7113735150879902  2.9812382133852000
