Pt 
 1.0000000000000000
     2.7599999999999998    0.0000000000000000    0.0000000000000000
    -1.3799999999999999    2.3902301144450502    0.0000000000000000
     0.0000000000000000    0.0000000000000000    4.7900000000000000
 Pt 
   2
Cartesian
  0.0000000000000000  0.0000000000000000  0.0000000000000000
  0.0000000000000001  1.5934867429633668  2.3950000000000000
