Pt                                      
   1.00000000000000     
     2.7375920684921273    0.0000000000000000    0.0000000000000000
    -1.3687960342460637    2.3708242765129706    0.0000000000000000
     0.0000000000000000    0.0000000000000000    4.7428144594757651
   Pt
     2
Direct
  0.0000000000000000  0.0000000000000000  0.0000000000000000
  0.3333333333333357  0.6666666666666643  0.5000000000000000
 
  0.00000000E+00  0.00000000E+00  0.00000000E+00
  0.00000000E+00  0.00000000E+00  0.00000000E+00
