Pt 
 1.0000000000000000
     2.7375920684921273   -0.0000000000000000   -0.0000000000000000
    -1.3687960342460637    2.3708242765129706   -0.0000000000000000
     0.0000000000000000    0.0000000000000000    4.7428144594757651
 Pt 
   2
Cartesian
  0.0000000000000000  0.0000000000000000  0.0000000000000000
  0.0000000000000098  1.5805495176753082  2.3714072297378825
