Pt 
 1.0000000000000000
     2.6979126794883461   -0.0000000000000000   -0.0000000000000000
    -1.3489563397441731    2.3364609176290516   -0.0000000000000000
     0.0000000000000000    0.0000000000000000    4.6740708427491304
 Pt 
   2
Cartesian
  0.0000000000000000  0.0000000000000000  0.0000000000000000
  0.0000000000000096  1.5576406117526955  2.3370354213745652
