Pt                                      
   1.00000000000000     
     2.5327343521727332    0.0000000000000000    0.0000000000000000
    -1.2663671760863666    2.1934122900191095    0.0000000000000000
     0.0000000000000000    0.0000000000000000    4.3879032401318367
   Pt
     2
Direct
  0.0000000000000000  0.0000000000000000  0.0000000000000000
  0.3333333333333357  0.6666666666666643  0.5000000000000000
 
  0.00000000E+00  0.00000000E+00  0.00000000E+00
  0.00000000E+00  0.00000000E+00  0.00000000E+00
