Pt 
 1.0000000000000000
     2.5327343521727332   -0.0000000000000000   -0.0000000000000000
    -1.2663671760863666    2.1934122900191095   -0.0000000000000000
     0.0000000000000000    0.0000000000000000    4.3879032401318367
 Pt 
   2
Cartesian
  0.0000000000000000  0.0000000000000000  0.0000000000000000
  0.0000000000000090  1.4622748600127344  2.1939516200659184
