Pt 
 1.0000000000000000
    -0.0000000000000000    1.9566124929662110    1.9566124929662110
     1.9566124929662108    0.0000000000000000    1.9566124929662110
     1.9566124929662108    1.9566124929662110   -0.0000000000000000
 Pt 
   1
Cartesian
  0.0000000000000000  0.0000000000000000  0.0000000000000000
