Pt                                      
   1.00000000000000     
     2.6979126794883466    0.0000000000000000    0.0000000000000000
    -1.3489563397441733    2.3364609176290516    0.0000000000000000
     0.0000000000000000    0.0000000000000000    4.6740708427491313
   Pt
     2
Direct
  0.0000000000000000  0.0000000000000000  0.0000000000000000
  0.3333333333333357  0.6666666666666643  0.5000000000000000
 
  0.00000000E+00  0.00000000E+00  0.00000000E+00
  0.00000000E+00  0.00000000E+00  0.00000000E+00
