Co 
 1.0000000000000000
     0.0000000000000000    1.7735467658740853    1.7735467658740853
     1.7735467658740853    0.0000000000000000    1.7735467658740853
     1.7735467658740853    1.7735467658740853    0.0000000000000000
 Co 
   1
Cartesian
  0.0000000000000000  0.0000000000000000  0.0000000000000000
