Pt                                      
   1.00000000000000     
     0.0000000000000000    2.1371565197903268    2.1371565197903268
     2.1371565197903264    0.0000000000000000    2.1371565197903268
     2.1371565197903264    2.1371565197903268    0.0000000000000000
   Pt
     1
Direct
  0.0000000000000000  0.0000000000000000  0.0000000000000000
 
  0.00000000E+00  0.00000000E+00  0.00000000E+00
