Co                                      
   1.00000000000000     
     1.1962922927429174   -2.0720390317337940    0.0000000000000000
     1.1962922927429174    2.0720390317337940    0.0000000000000000
     0.0000000000000000    0.0000000000000000    3.8593520906391605
   Co
     2
Direct
  0.3333333333333357  0.6666666666666643  0.2500000000000000
  0.6666666666666643  0.3333333333333357  0.7500000000000000
 
  0.00000000E+00  0.00000000E+00  0.00000000E+00
  0.00000000E+00  0.00000000E+00  0.00000000E+00
