Co 
 1.0000000000000000
     1.1962922927429174   -2.0720390317337940   -0.0000000000000000
     1.1962922927429174    2.0720390317337940    0.0000000000000000
     0.0000000000000000    0.0000000000000000    3.8593520906391605
 Co 
   2
Cartesian
  1.1962922927429174  0.6906796772445881  0.9648380226597901
  1.1962922927429174 -0.6906796772445882  2.8945140679793706
