Co 
 1.0000000000000000
     1.2959833171381603   -2.2447089510449434   -0.0000000000000000
     1.2959833171381603    2.2447089510449434    0.0000000000000000
     0.0000000000000000    0.0000000000000000    4.1809647648590902
 Co 
   2
Cartesian
  1.2959833171381603  0.7482363170149704  1.0452411912147725
  1.2959833171381603 -0.7482363170149705  3.1357235736443179
