Co                                      
   1.00000000000000     
     2.4502114195385287    0.0000000000000000    0.0000000000000000
    -1.2251057097692644    2.1219453339630983    0.0000000000000000
     0.0000000000000000    0.0000000000000000    3.9643423546864138
   Co
     2
Direct
  0.0000000000000000  0.0000000000000000  0.0000000000000000
  0.3333333333333357  0.6666666666666643  0.5000000000000000
 
  0.00000000E+00  0.00000000E+00  0.00000000E+00
  0.00000000E+00  0.00000000E+00  0.00000000E+00
