Co                                      
   1.00000000000000     
     1.2250127441367558   -2.1217843127642348    0.0000000000000000
     1.2250127441367558    2.1217843127642348    0.0000000000000000
     0.0000000000000000    0.0000000000000000    3.9520069834302580
   Co
     2
Direct
  0.3333333333333357  0.6666666666666643  0.2500000000000000
  0.6666666666666643  0.3333333333333357  0.7500000000000000
 
  0.00000000E+00  0.00000000E+00  0.00000000E+00
  0.00000000E+00  0.00000000E+00  0.00000000E+00
