Co                                      
   1.00000000000000     
     1.1838309146935118   -2.0504552918199002    0.0000000000000000
     1.1838309146935118    2.0504552918199002    0.0000000000000000
     0.0000000000000000    0.0000000000000000    3.8191505063616691
   Co
     2
Direct
  0.3333333333333357  0.6666666666666643  0.2500000000000000
  0.6666666666666643  0.3333333333333357  0.7500000000000000
 
  0.00000000E+00  0.00000000E+00  0.00000000E+00
  0.00000000E+00  0.00000000E+00  0.00000000E+00
