Co 
 1.0000000000000000
     1.1838309146935118   -2.0504552918199002   -0.0000000000000000
     1.1838309146935118    2.0504552918199002    0.0000000000000000
     0.0000000000000000    0.0000000000000000    3.8191505063616691
 Co 
   2
Cartesian
  1.1838309146935118  0.6834850972732902  0.9547876265904174
  1.1838309146935118 -0.6834850972732903  2.8643628797712521
