Pt 
 1.0000000000000000
    -0.0000000000000000    1.9986371157298426    1.9986371157298426
     1.9986371157298424    0.0000000000000000    1.9986371157298426
     1.9986371157298424    1.9986371157298426   -0.0000000000000000
 Pt 
   1
Cartesian
  0.0000000000000000  0.0000000000000000  0.0000000000000000
