Pt 
 1.0000000000000000
    -0.0000000000000000    1.9897817166642726    1.9897817166642726
     1.9897817166642724    0.0000000000000000    1.9897817166642726
     1.9897817166642724    1.9897817166642726   -0.0000000000000000
 Pt 
   1
Cartesian
  0.0000000000000000  0.0000000000000000  0.0000000000000000
