Co                                      
   1.00000000000000     
     1.2710605610393495   -2.2015414712171557    0.0000000000000000
     1.2710605610393495    2.2015414712171557    0.0000000000000000
     0.0000000000000000    0.0000000000000000    4.1005615963041082
   Co
     2
Direct
  0.3333333333333357  0.6666666666666643  0.2500000000000000
  0.6666666666666643  0.3333333333333357  0.7500000000000000
 
  0.00000000E+00  0.00000000E+00  0.00000000E+00
  0.00000000E+00  0.00000000E+00  0.00000000E+00
