Co 
 1.0000000000000000
     1.2710605610393495   -2.2015414712171557   -0.0000000000000000
     1.2710605610393495    2.2015414712171557    0.0000000000000000
     0.0000000000000000    0.0000000000000000    4.1005615963041082
 Co 
   2
Cartesian
  1.2710605610393495  0.7338471570723742  1.0251403990760271
  1.2710605610393495 -0.7338471570723752  3.0754211972280809
