Pt                                      
   1.00000000000000     
     2.7063025615971581    0.0000000000000000    0.0000000000000000
    -1.3531512807985790    2.3437267686700389    0.0000000000000000
     0.0000000000000000    0.0000000000000000    4.6886061179776588
   Pt
     2
Direct
  0.0000000000000000  0.0000000000000000  0.0000000000000000
  0.3333333333333357  0.6666666666666643  0.5000000000000000
 
  0.00000000E+00  0.00000000E+00  0.00000000E+00
  0.00000000E+00  0.00000000E+00  0.00000000E+00
