Pt 
 1.0000000000000000
     2.7063025615971581   -0.0000000000000000   -0.0000000000000000
    -1.3531512807985790    2.3437267686700389   -0.0000000000000000
     0.0000000000000000    0.0000000000000000    4.6886061179776588
 Pt 
   2
Cartesian
  0.0000000000000000  0.0000000000000000  0.0000000000000000
  0.0000000000000096  1.5624845124466871  2.3443030589888294
