Pt                                      
   1.00000000000000     
     2.5877937946112710    0.0000000000000000    0.0000000000000000
    -1.2938968973056355    2.2410951658890905    0.0000000000000000
     0.0000000000000000    0.0000000000000000    4.4832924410042683
   Pt
     2
Direct
  0.0000000000000000  0.0000000000000000  0.0000000000000000
  0.3333333333333357  0.6666666666666643  0.5000000000000000
 
  0.00000000E+00  0.00000000E+00  0.00000000E+00
  0.00000000E+00  0.00000000E+00  0.00000000E+00
