Pt 
 1.0000000000000000
     2.5877937946112710   -0.0000000000000000   -0.0000000000000000
    -1.2938968973056355    2.2410951658890905   -0.0000000000000000
     0.0000000000000000    0.0000000000000000    4.4832924410042683
 Pt 
   2
Cartesian
  0.0000000000000000  0.0000000000000000  0.0000000000000000
  0.0000000000000092  1.4940634439260552  2.2416462205021341
