Co 
 1.0000000000000000
     2.4700000000000002    0.0000000000000000    0.0000000000000000
    -1.2350000000000001    2.1390827473475635    0.0000000000000000
     0.0000000000000000    0.0000000000000000    8.0899999999999999
 Co 
   2
Cartesian
  0.0000000000000000  0.0000000000000000  0.0000000000000000
  0.0000000000000000  1.4260551648983757  4.0449999999999999
