Co hcp
1.0
   1.2359999516013529   -2.1408147143262166    0.0000000000000000
   1.2359999516013529    2.1408147143262166    0.0000000000000000
   0.0000000000000000    0.0000000000000000    4.0211440800000000
Co
2
direct
   0.3333333333333333    0.6666666666666666    0.2500000000000000 Co
   0.6666666666666667    0.3333333333333334    0.7500000000000000 Co
