Pt                                      
   1.00000000000000     
     2.8630910068039594    0.0000000000000000    0.0000000000000000
    -1.4315455034019797    2.4795095452389937    0.0000000000000000
     0.0000000000000000    0.0000000000000000    4.9602384453664250
   Pt
     2
Direct
  0.0000000000000000  0.0000000000000000  0.0000000000000000
  0.3333333333333357  0.6666666666666643  0.5000000000000000
 
  0.00000000E+00  0.00000000E+00  0.00000000E+00
  0.00000000E+00  0.00000000E+00  0.00000000E+00
