Co                                      
   1.00000000000000     
     2.5062355504149796    0.0000000000000000    0.0000000000000000
    -1.2531177752074898    2.1704636545270484    0.0000000000000000
     0.0000000000000000    0.0000000000000000    4.0549871182961752
   Co
     2
Direct
  0.0000000000000000  0.0000000000000000  0.0000000000000000
  0.3333333333333357  0.6666666666666643  0.5000000000000000
 
  0.00000000E+00  0.00000000E+00  0.00000000E+00
  0.00000000E+00  0.00000000E+00  0.00000000E+00
