Co 
 1.0000000000000000
     2.5062355504149796    0.0000000000000000   -0.0000000000000000
    -1.2531177752074898    2.1704636545270484    0.0000000000000000
    -0.0000000000000000   -0.0000000000000000    4.0549871182961752
 Co 
   2
Cartesian
  0.0000000000000000  0.0000000000000000  0.0000000000000000
  0.0000000000000089  1.4469757696846939  2.0274935591480876
