Co                                      
   1.00000000000000     
     0.0000000000000000    1.6490115033033848    1.6490115033033848
     1.6490115033033848    0.0000000000000000    1.6490115033033848
     1.6490115033033848    1.6490115033033848    0.0000000000000000
   Co
     1
Direct
  0.0000000000000000  0.0000000000000000  0.0000000000000000
 
  0.00000000E+00  0.00000000E+00  0.00000000E+00
