Co 
 1.0000000000000000
     0.0000000000000000    1.6490115033033848    1.6490115033033848
     1.6490115033033848    0.0000000000000000    1.6490115033033848
     1.6490115033033848    1.6490115033033848    0.0000000000000000
 Co 
   1
Cartesian
  0.0000000000000000  0.0000000000000000  0.0000000000000000
