Pt 
 1.0000000000000000
     2.8630910068039594   -0.0000000000000000   -0.0000000000000000
    -1.4315455034019797    2.4795095452389937   -0.0000000000000000
     0.0000000000000000    0.0000000000000000    4.9602384453664250
 Pt 
   2
Cartesian
  0.0000000000000000  0.0000000000000000  0.0000000000000000
  0.0000000000000102  1.6530063634926564  2.4801192226832129
