Co                                      
   1.00000000000000     
     1.2665699250308222   -2.1937634614920882    0.0000000000000000
     1.2665699250308222    2.1937634614920882    0.0000000000000000
     0.0000000000000000    0.0000000000000000    4.0860743797827404
   Co
     2
Direct
  0.3333333333333357  0.6666666666666643  0.2500000000000000
  0.6666666666666643  0.3333333333333357  0.7500000000000000
 
  0.00000000E+00  0.00000000E+00  0.00000000E+00
  0.00000000E+00  0.00000000E+00  0.00000000E+00
