Co 
 1.0000000000000000
     1.2665699250308222   -2.1937634614920882   -0.0000000000000000
     1.2665699250308222    2.1937634614920882    0.0000000000000000
     0.0000000000000000    0.0000000000000000    4.0860743797827404
 Co 
   2
Cartesian
  1.2665699250308224  0.7312544871640190  1.0215185949456851
  1.2665699250308224 -0.7312544871640191  3.0645557848370553
