Pt                                      
   1.00000000000000     
     2.8906207280232281    0.0000000000000000    0.0000000000000000
    -1.4453103640116141    2.5033509831739837    0.0000000000000000
     0.0000000000000000    0.0000000000000000    5.0079330458026403
   Pt
     2
Direct
  0.0000000000000000  0.0000000000000000  0.0000000000000000
  0.3333333333333357  0.6666666666666643  0.5000000000000000
 
  0.00000000E+00  0.00000000E+00  0.00000000E+00
  0.00000000E+00  0.00000000E+00  0.00000000E+00
