Pt 
 1.0000000000000000
     2.7981108351393416   -0.0000000000000000   -0.0000000000000000
    -1.3990554175696708    2.4232350658351609   -0.0000000000000000
     0.0000000000000000    0.0000000000000000    4.8476618123109683
 Pt 
   2
Cartesian
  0.0000000000000000  0.0000000000000000  0.0000000000000000
  0.0000000000000100  1.6154900438901014  2.4238309061554846
