Pt 
 1.0000000000000000
     2.8906207280232281   -0.0000000000000000   -0.0000000000000000
    -1.4453103640116141    2.5033509831739837   -0.0000000000000000
     0.0000000000000000    0.0000000000000000    5.0079330458026403
 Pt 
   2
Cartesian
  0.0000000000000000  0.0000000000000000  0.0000000000000000
  0.0000000000000103  1.6689006554493167  2.5039665229013202
