Co                                      
   1.00000000000000     
     1.3707515854345926   -2.3742113905283055    0.0000000000000000
     1.3707515854345926    2.3742113905283055    0.0000000000000000
     0.0000000000000000    0.0000000000000000    4.4221742705240379
   Co
     2
Direct
  0.3333333333333357  0.6666666666666643  0.2500000000000000
  0.6666666666666643  0.3333333333333357  0.7500000000000000
 
  0.00000000E+00  0.00000000E+00  0.00000000E+00
  0.00000000E+00  0.00000000E+00  0.00000000E+00
