Co 
 1.0000000000000000
     1.3707515854345926   -2.3742113905283055   -0.0000000000000000
     1.3707515854345926    2.3742113905283055    0.0000000000000000
     0.0000000000000000    0.0000000000000000    4.4221742705240379
 Co 
   2
Cartesian
  1.3707515854345926  0.7914037968427572  1.1055435676310095
  1.3707515854345926 -0.7914037968427573  3.3166307028930286
