Pt 
 1.0000000000000000
     2.6919939608288339    0.0000000541886376   -0.0000000000305327
    -1.3459969334856683    2.3313353197688258    0.0000000000389058
    -0.0000000000508310    0.0000000000444570    4.7567186210727552
 Pt 
   1
Cartesian
  0.0000000000000000  0.0000000000000000  0.0000000000000000
