Co                                      
   1.00000000000000     
     0.0000000000000000    1.7718102322727858    1.7718102322727858
     1.7718102322727858    0.0000000000000000    1.7718102322727858
     1.7718102322727858    1.7718102322727858    0.0000000000000000
   Co
     1
Direct
  0.0000000000000000  0.0000000000000000  0.0000000000000000
 
  0.00000000E+00  0.00000000E+00  0.00000000E+00
