Co 
 1.0000000000000000
     0.0000000000000000    1.7718102322727858    1.7718102322727858
     1.7718102322727858    0.0000000000000000    1.7718102322727858
     1.7718102322727858    1.7718102322727858    0.0000000000000000
 Co 
   1
Cartesian
  0.0000000000000000  0.0000000000000000  0.0000000000000000
