Co                                      
   1.00000000000000     
     2.4644571548675973    0.0000000000000000    0.0000000000000000
    -1.2322285774337987    2.1342825026536612    0.0000000000000000
     0.0000000000000000    0.0000000000000000    3.9873913746560112
   Co
     2
Direct
  0.0000000000000000  0.0000000000000000  0.0000000000000000
  0.3333333333333357  0.6666666666666643  0.5000000000000000
 
  0.00000000E+00  0.00000000E+00  0.00000000E+00
  0.00000000E+00  0.00000000E+00  0.00000000E+00
