Co 
 1.0000000000000000
     2.4644571548675973    0.0000000000000000   -0.0000000000000000
    -1.2322285774337987    2.1342825026536612    0.0000000000000000
    -0.0000000000000000   -0.0000000000000000    3.9873913746560112
 Co 
   2
Cartesian
  0.0000000000000000  0.0000000000000000  0.0000000000000000
  0.0000000000000087  1.4228550017691022  1.9936956873280056
