Pt                                      
   1.00000000000000     
     3.0282693341195723    0.0000000000000000    0.0000000000000000
    -1.5141346670597862    2.6225581728489358    0.0000000000000000
     0.0000000000000000    0.0000000000000000    5.2464060479837187
   Pt
     2
Direct
  0.0000000000000000  0.0000000000000000  0.0000000000000000
  0.3333333333333357  0.6666666666666643  0.5000000000000000
 
  0.00000000E+00  0.00000000E+00  0.00000000E+00
  0.00000000E+00  0.00000000E+00  0.00000000E+00
