Pt 
 1.0000000000000000
     3.0282693341195723   -0.0000000000000000   -0.0000000000000000
    -1.5141346670597862    2.6225581728489358   -0.0000000000000000
     0.0000000000000000    0.0000000000000000    5.2464060479837187
 Pt 
   2
Cartesian
  0.0000000000000000  0.0000000000000000  0.0000000000000000
  0.0000000000000108  1.7483721152326175  2.6232030239918593
