Co 
 1.0000000000000000
     0.0000000000000000    1.7444669748015027    1.7444669748015027
     1.7444669748015027    0.0000000000000000    1.7444669748015027
     1.7444669748015027    1.7444669748015027    0.0000000000000000
 Co 
   1
Cartesian
  0.0000000000000000  0.0000000000000000  0.0000000000000000
