Co                                      
   1.00000000000000     
     2.4785400728804294    0.0000000000000000    0.0000000000000000
    -1.2392700364402147    2.1464786674121870    0.0000000000000000
     0.0000000000000000    0.0000000000000000    4.0101769628345041
   Co
     2
Direct
  0.0000000000000000  0.0000000000000000  0.0000000000000000
  0.3333333333333357  0.6666666666666643  0.5000000000000000
 
  0.00000000E+00  0.00000000E+00  0.00000000E+00
  0.00000000E+00  0.00000000E+00  0.00000000E+00
