Pt 
 1.0000000000000000
     2.8080315643654217   -0.0000000000000000   -0.0000000000000000
    -1.4040157821827108    2.4318266693690127   -0.0000000000000000
     0.0000000000000000    0.0000000000000000    4.8648492444939935
 Pt 
   2
Cartesian
  0.0000000000000000  0.0000000000000000  0.0000000000000000
  0.0000000000000100  1.6212177795793361  2.4324246222469967
