Co 
 1.0000000000000000
     1.2250127441367558   -2.1217843127642348   -0.0000000000000000
     1.2250127441367558    2.1217843127642348    0.0000000000000000
     0.0000000000000000    0.0000000000000000    3.9520069834302580
 Co 
   2
Cartesian
  1.2250127441367558  0.7072614375880681  0.9880017458575645
  1.2250127441367558 -0.7072614375880683  2.9640052375726937
