Pt                                      
   1.00000000000000     
     2.9181504492424972    0.0000000000000000    0.0000000000000000
    -1.4590752246212486    2.5271924211089742    0.0000000000000000
     0.0000000000000000    0.0000000000000000    5.0556276462388556
   Pt
     2
Direct
  0.0000000000000000  0.0000000000000000  0.0000000000000000
  0.3333333333333357  0.6666666666666643  0.5000000000000000
 
  0.00000000E+00  0.00000000E+00  0.00000000E+00
  0.00000000E+00  0.00000000E+00  0.00000000E+00
