Pt 
 1.0000000000000000
     2.9181504492424972   -0.0000000000000000   -0.0000000000000000
    -1.4590752246212486    2.5271924211089742   -0.0000000000000000
     0.0000000000000000    0.0000000000000000    5.0556276462388556
 Pt 
   2
Cartesian
  0.0000000000000000  0.0000000000000000  0.0000000000000000
  0.0000000000000104  1.6847949474059769  2.5278138231194278
