Pt 
 1.0000000000000000
    -0.0000000000000000    2.0580025746129071    2.0580025746129071
     2.0580025746129071    0.0000000000000000    2.0580025746129071
     2.0580025746129071    2.0580025746129071   -0.0000000000000000
 Pt 
   1
Cartesian
  0.0000000000000000  0.0000000000000000  0.0000000000000000
