Co 
 1.0000000000000000
     1.2585991829899441   -2.1799577313032623   -0.0000000000000000
     1.2585991829899441    2.1799577313032623    0.0000000000000000
     0.0000000000000000    0.0000000000000000    4.0603600120266163
 Co 
   2
Cartesian
  1.2585991829899441  0.7266525771010770  1.0150900030066541
  1.2585991829899441 -0.7266525771010771  3.0452700090199625
