Co 
 1.0000000000000000
     1.2530226839140193   -2.1702989515753996   -0.0000000000000000
     1.2530226839140193    2.1702989515753996    0.0000000000000000
     0.0000000000000000    0.0000000000000000    4.0423696985407949
 Co 
   2
Cartesian
  1.2530226839140193  0.7234329838584562  1.0105924246351987
  1.2530226839140193 -0.7234329838584563  3.0317772739055964
