Pt                                      
   1.00000000000000     
     0.0000000000000000    2.0777910609072623    2.0777910609072623
     2.0777910609072618    0.0000000000000000    2.0777910609072623
     2.0777910609072618    2.0777910609072623    0.0000000000000000
   Pt
     1
Direct
  0.0000000000000000  0.0000000000000000  0.0000000000000000
 
  0.00000000E+00  0.00000000E+00  0.00000000E+00
