Pt 
 1.0000000000000000
    -0.0000000000000000    2.0112945376462958    2.0112945376462958
     2.0112945376462954    0.0000000000000000    2.0112945376462958
     2.0112945376462954    2.0112945376462958   -0.0000000000000000
 Pt 
   1
Cartesian
  0.0000000000000000  0.0000000000000000  0.0000000000000000
