Pt                                      
   1.00000000000000     
     0.0000000000000000    1.9453023414948036    1.9453023414948036
     1.9453023414948036    0.0000000000000000    1.9453023414948036
     1.9453023414948036    1.9453023414948036    0.0000000000000000
   Pt
     1
Direct
  0.0000000000000000  0.0000000000000000  0.0000000000000000
 
  0.00000000E+00  0.00000000E+00  0.00000000E+00
