Co 
 1.0000000000000000
     0.0000000000000000    1.6139261521692703    1.6139261521692703
     1.6139261521692703    0.0000000000000000    1.6139261521692703
     1.6139261521692703    1.6139261521692703    0.0000000000000000
 Co 
   1
Cartesian
  0.0000000000000000  0.0000000000000000  0.0000000000000000
