Co                                      
   1.00000000000000     
     2.4700000000000002    0.0000000000000000    0.0000000000000000
    -1.2350000000000001    2.1390827473475635    0.0000000000000000
     0.0000000000000000    0.0000000000000000    8.0899999999999999
   Co
     2
Direct
  0.0000000000000000  0.0000000000000000  0.0000000000000000
  0.3333333333333357  0.6666666666666643  0.5000000000000000
 
  0.00000000E+00  0.00000000E+00  0.00000000E+00
  0.00000000E+00  0.00000000E+00  0.00000000E+00
