Pt                                      
   1.00000000000000     
     2.6153235158305397    0.0000000000000000    0.0000000000000000
    -1.3076617579152698    2.2649366038240806    0.0000000000000000
     0.0000000000000000    0.0000000000000000    4.5309870414404836
   Pt
     2
Direct
  0.0000000000000000  0.0000000000000000  0.0000000000000000
  0.3333333333333357  0.6666666666666643  0.5000000000000000
 
  0.00000000E+00  0.00000000E+00  0.00000000E+00
  0.00000000E+00  0.00000000E+00  0.00000000E+00
