Pt 
 1.0000000000000000
     2.6153235158305397   -0.0000000000000000   -0.0000000000000000
    -1.3076617579152698    2.2649366038240806   -0.0000000000000000
     0.0000000000000000    0.0000000000000000    4.5309870414404836
 Pt 
   2
Cartesian
  0.0000000000000000  0.0000000000000000  0.0000000000000000
  0.0000000000000093  1.5099577358827150  2.2654935207202418
