Co 
 1.0000000000000000
     0.0000000000000000    1.7191822055716137    1.7191822055716137
     1.7191822055716137    0.0000000000000000    1.7191822055716137
     1.7191822055716137    1.7191822055716137    0.0000000000000000
 Co 
   1
Cartesian
  0.0000000000000000  0.0000000000000000  0.0000000000000000
