Co                                      
   1.00000000000000     
     0.0000000000000000    1.7893529078398431    1.7893529078398431
     1.7893529078398431    0.0000000000000000    1.7893529078398431
     1.7893529078398431    1.7893529078398431    0.0000000000000000
   Co
     1
Direct
  0.0000000000000000  0.0000000000000000  0.0000000000000000
 
  0.00000000E+00  0.00000000E+00  0.00000000E+00
