Co 
 1.0000000000000000
     0.0000000000000000    1.7893529078398431    1.7893529078398431
     1.7893529078398431    0.0000000000000000    1.7893529078398431
     1.7893529078398431    1.7893529078398431    0.0000000000000000
 Co 
   1
Cartesian
  0.0000000000000000  0.0000000000000000  0.0000000000000000
