Co 
 1.0000000000000000
     0.0000000000000000    1.5788408010351556    1.5788408010351556
     1.5788408010351556    0.0000000000000000    1.5788408010351556
     1.5788408010351556    1.5788408010351556    0.0000000000000000
 Co 
   1
Cartesian
  0.0000000000000000  0.0000000000000000  0.0000000000000000
