Pt                                      
   1.00000000000000     
     0.0000000000000000    2.1767334923790367    2.1767334923790367
     2.1767334923790362    0.0000000000000000    2.1767334923790367
     2.1767334923790362    2.1767334923790367    0.0000000000000000
   Pt
     1
Direct
  0.0000000000000000  0.0000000000000000  0.0000000000000000
 
  0.00000000E+00  0.00000000E+00  0.00000000E+00
