Co                                      
   1.00000000000000     
     1.2087536707923225   -2.0936227716476874    0.0000000000000000
     1.2087536707923225    2.0936227716476874    0.0000000000000000
     0.0000000000000000    0.0000000000000000    3.8995536749166515
   Co
     2
Direct
  0.3333333333333357  0.6666666666666643  0.2500000000000000
  0.6666666666666643  0.3333333333333357  0.7500000000000000
 
  0.00000000E+00  0.00000000E+00  0.00000000E+00
  0.00000000E+00  0.00000000E+00  0.00000000E+00
