Co 
 1.0000000000000000
     1.2087536707923225   -2.0936227716476874   -0.0000000000000000
     1.2087536707923225    2.0936227716476874    0.0000000000000000
     0.0000000000000000    0.0000000000000000    3.8995536749166515
 Co 
   2
Cartesian
  1.2087536707923228  0.6978742572158858  0.9748884187291629
  1.2087536707923228 -0.6978742572158859  2.9246652561874886
