Pt                                      
   1.00000000000000     
     2.7220372323710600    0.0000000000000000    0.0000000000000000
    -1.3610186161855300    2.3573533932804227    0.0000000000000000
     0.0000000000000000    0.0000000000000000    4.7158660683992197
   Pt
     2
Direct
  0.0000000000000000  0.0000000000000000  0.0000000000000000
  0.3333333333333357  0.6666666666666643  0.5000000000000000
 
  0.00000000E+00  0.00000000E+00  0.00000000E+00
  0.00000000E+00  0.00000000E+00  0.00000000E+00
