Co 
 1.0000000000000000
     1.2212150488417282   -2.1152065115615812   -0.0000000000000000
     1.2212150488417282    2.1152065115615812    0.0000000000000000
     0.0000000000000000    0.0000000000000000    3.9397552591941434
 Co 
   2
Cartesian
  1.2212150488417282  0.7050688371871836  0.9849388147985360
  1.2212150488417282 -0.7050688371871837  2.9548164443956075
