Pt                                      
   1.00000000000000     
     2.7599999999999998    0.0000000000000000    0.0000000000000000
    -1.3799999999999999    2.3902301144450502    0.0000000000000000
     0.0000000000000000    0.0000000000000000    4.7900000000000000
   Pt
     2
Direct
  0.0000000000000000  0.0000000000000000  0.0000000000000000
  0.3333333333333357  0.6666666666666643  0.5000000000000000
 
  0.00000000E+00  0.00000000E+00  0.00000000E+00
  0.00000000E+00  0.00000000E+00  0.00000000E+00
