 SYSTEM = Co-hcc
   NWRITE =      2    write-flag
   ISTART =      0    job   : 0-new, 1-cont, 2-samecut
   ICHARG =      2    charge: 0-wave, 1-file, 2-atom, >10-const
   INIWAV =      1    electr: 0-lowe 1-rand  2-diag

 Electronic Relaxation:
   ENCUT  = 425.0     energy cutoff in eV
   PREC   = Accurate      normal | accurate
   ADDGRID = .FALSE.  (use fine grid)

   NELM   =   100     number of ELM steps
   EDIFF  =  1E-06    energy stopping-criterion for ELM
   # i fnot MD (force) > can put off tag
   # depends phonon calculation 
   # requiring high accuracy for force e-8 
   LREAL  =  .F.      real-space projection (.FALSE., .TRUE., On, Auto)
   ALGO   =  Normal     Normal, Fast, Very_Fast
   LWAVE  = .FALSE.
   LCHARG = .FALSE.

 Ionic Relaxation:
   NSW    =     0       max number of geometry steps
   IBRION =     -1     ionic relax: 0-MD, 1-quasi-Newton, 2-CG, 3-Damped MD
   EDIFFG =   -0.02  force (eV/A) stopping-criterion for geometry steps
   ISIF   =     2     (1:force=y stress=trace only ions=y shape=n volume=n)
   ISYM   =     1     (1-use symmetry, 0-no symmetry)
 
 #-EDIFFG  - force + del Energy most cases will be force on atoms and cell 
 
 DOS related values:
   ISMEAR =     0     (-1-Fermi, 1-Methfessel/Paxton)
   SIGMA  =     0.05   broadening in eV
   # LORBIT = 11 magnetic props in OUTCAR should be on
  # Zinc blend low sym relaxation > energy atom relaxation  emnergu 

isif 4 phase transition dense 2/3
Parallelization:
   NPAR = 4

Magnetism:
   ISPIN = 2
   MAGMOM = 2*3
