Co 
 1.0000000000000000
     0.0000000000000000    1.6840968544374992    1.6840968544374992
     1.6840968544374992    0.0000000000000000    1.6840968544374992
     1.6840968544374992    1.6840968544374992    0.0000000000000000
 Co 
   1
Cartesian
  0.0000000000000000  0.0000000000000000  0.0000000000000000
