Co                                      
   1.00000000000000     
     1.3209060732369711   -2.2878764308727306    0.0000000000000000
     1.3209060732369711    2.2878764308727306    0.0000000000000000
     0.0000000000000000    0.0000000000000000    4.2613679334140731
   Co
     2
Direct
  0.3333333333333357  0.6666666666666643  0.2500000000000000
  0.6666666666666643  0.3333333333333357  0.7500000000000000
 
  0.00000000E+00  0.00000000E+00  0.00000000E+00
  0.00000000E+00  0.00000000E+00  0.00000000E+00
