Co 
 1.0000000000000000
     1.3209060732369711   -2.2878764308727306   -0.0000000000000000
     1.3209060732369711    2.2878764308727306    0.0000000000000000
     0.0000000000000000    0.0000000000000000    4.2613679334140731
 Co 
   2
Cartesian
  1.3209060732369711  0.7626254769575660  1.0653419833535183
  1.3209060732369711 -0.7626254769575661  3.1960259500605548
