Pt 
 1.0000000000000000
     2.6428532370498088   -0.0000000000000000   -0.0000000000000000
    -1.3214266185249044    2.2887780417590711   -0.0000000000000000
     0.0000000000000000    0.0000000000000000    4.5786816418766998
 Pt 
   2
Cartesian
  0.0000000000000000  0.0000000000000000  0.0000000000000000
  0.0000000000000094  1.5258520278393752  2.2893408209383499
