Co 
 1.0000000000000000
     2.4502114195385287    0.0000000000000000   -0.0000000000000000
    -1.2251057097692644    2.1219453339630983    0.0000000000000000
    -0.0000000000000000   -0.0000000000000000    3.9643423546864138
 Co 
   2
Cartesian
  0.0000000000000000  0.0000000000000000  0.0000000000000000
  0.0000000000000087  1.4146302226420604  1.9821711773432069
