Co 
 1.0000000000000000
     0.0000000000000000    1.7016395300045566    1.7016395300045566
     1.7016395300045566    0.0000000000000000    1.7016395300045566
     1.7016395300045566    1.7016395300045566    0.0000000000000000
 Co 
   1
Cartesian
  0.0000000000000000  0.0000000000000000  0.0000000000000000
