Co 
 1.0000000000000000
     0.0000000000000000    1.7830311535141967    1.7830311535141967
     1.7830311535141967    0.0000000000000000    1.7830311535141967
     1.7830311535141967    1.7830311535141967    0.0000000000000000
 Co 
   1
Cartesian
  0.0000000000000000  0.0000000000000000  0.0000000000000000
