Pt                                      
   1.00000000000000     
     0.0000000000000000    1.8799061979637133    1.8799061979637133
     1.8799061979637131    0.0000000000000000    1.8799061979637133
     1.8799061979637131    1.8799061979637133    0.0000000000000000
   Pt
     1
Direct
  0.0000000000000000  0.0000000000000000  0.0000000000000000
 
  0.00000000E+00  0.00000000E+00  0.00000000E+00
