Pt 
 1.0000000000000000
    -0.0000000000000000    1.9453023414948036    1.9453023414948036
     1.9453023414948036    0.0000000000000000    1.9453023414948036
     1.9453023414948036    1.9453023414948036   -0.0000000000000000
 Pt 
   1
Cartesian
  0.0000000000000000  0.0000000000000000  0.0000000000000000
