Pt                                      
   1.00000000000000     
     2.7832269853714040    0.0000000000000000    0.0000000000000000
    -1.3916134926857020    2.4103452738300155    0.0000000000000000
     0.0000000000000000    0.0000000000000000    4.8218758894539802
   Pt
     2
Direct
  0.0000000000000000  0.0000000000000000  0.0000000000000000
  0.3333333333333357  0.6666666666666643  0.5000000000000000
 
  0.00000000E+00  0.00000000E+00  0.00000000E+00
  0.00000000E+00  0.00000000E+00  0.00000000E+00
