Pt                                      
   1.00000000000000     
     2.8355612855846903    0.0000000000000000    0.0000000000000000
    -1.4177806427923452    2.4556681073040032    0.0000000000000000
     0.0000000000000000    0.0000000000000000    4.9125438449302088
   Pt
     2
Direct
  0.0000000000000000  0.0000000000000000  0.0000000000000000
  0.3333333333333357  0.6666666666666643  0.5000000000000000
 
  0.00000000E+00  0.00000000E+00  0.00000000E+00
  0.00000000E+00  0.00000000E+00  0.00000000E+00
