Pt 
 1.0000000000000000
     2.7832269853714040   -0.0000000000000000   -0.0000000000000000
    -1.3916134926857020    2.4103452738300155   -0.0000000000000000
     0.0000000000000000    0.0000000000000000    4.8218758894539802
 Pt 
   2
Cartesian
  0.0000000000000000  0.0000000000000000  0.0000000000000000
  0.0000000000000099  1.6068968492200046  2.4109379447269901
