Pt 
 1.0000000000000000
     2.8355612855846903   -0.0000000000000000   -0.0000000000000000
    -1.4177806427923452    2.4556681073040032   -0.0000000000000000
     0.0000000000000000    0.0000000000000000    4.9125438449302088
 Pt 
   2
Cartesian
  0.0000000000000000  0.0000000000000000  0.0000000000000000
  0.0000000000000101  1.6371120715359964  2.4562719224651044
