Co 
 1.0000000000000000
     0.0000000000000000    1.8244382589739576    1.8244382589739576
     1.8244382589739576    0.0000000000000000    1.8244382589739576
     1.8244382589739576    1.8244382589739576    0.0000000000000000
 Co 
   1
Cartesian
  0.0000000000000000  0.0000000000000000  0.0000000000000000
