Co                                      
   1.00000000000000     
     1.1713695366441064   -2.0288715519060063    0.0000000000000000
     1.1713695366441064    2.0288715519060063    0.0000000000000000
     0.0000000000000000    0.0000000000000000    3.7789489220841781
   Co
     2
Direct
  0.3333333333333357  0.6666666666666643  0.2500000000000000
  0.6666666666666643  0.3333333333333357  0.7500000000000000
 
  0.00000000E+00  0.00000000E+00  0.00000000E+00
  0.00000000E+00  0.00000000E+00  0.00000000E+00
