Co 
 1.0000000000000000
     1.1713695366441064   -2.0288715519060063   -0.0000000000000000
     1.1713695366441064    2.0288715519060063    0.0000000000000000
     0.0000000000000000    0.0000000000000000    3.7789489220841781
 Co 
   2
Cartesian
  1.1713695366441064  0.6762905173019924  0.9447372305210445
  1.1713695366441064 -0.6762905173019925  2.8342116915631337
