Pt                                      
   1.00000000000000     
     0.0000000000000000    1.9677933784877553    1.9677933784877553
     1.9677933784877550    0.0000000000000000    1.9677933784877553
     1.9677933784877550    1.9677933784877553    0.0000000000000000
   Pt
     1
Direct
  0.0000000000000000  0.0000000000000000  0.0000000000000000
 
  0.00000000E+00  0.00000000E+00  0.00000000E+00
