Pt 
 1.0000000000000000
    -0.0000000000000000    1.9392716568467778    1.9392716568467778
     1.9392716568467776    0.0000000000000000    1.9392716568467778
     1.9392716568467776    1.9392716568467778   -0.0000000000000000
 Pt 
   1
Cartesian
  0.0000000000000000  0.0000000000000000  0.0000000000000000
