Pt 
 1.0000000000000000
    -0.0000000000000000    1.9677933784877553    1.9677933784877553
     1.9677933784877550    0.0000000000000000    1.9677933784877553
     1.9677933784877550    1.9677933784877553   -0.0000000000000000
 Pt 
   1
Cartesian
  0.0000000000000000  0.0000000000000000  0.0000000000000000
