Co 
 1.0000000000000000
     1.2835219390887549   -2.2231252111310496   -0.0000000000000000
     1.2835219390887549    2.2231252111310496    0.0000000000000000
     0.0000000000000000    0.0000000000000000    4.1407631805815992
 Co 
   2
Cartesian
  1.2835219390887549  0.7410417370436726  1.0351907951453998
  1.2835219390887549 -0.7410417370436727  3.1055723854361994
