Co 
 1.0000000000000000
     2.5198566632920003    0.0000000000000000   -0.0000000000000000
    -1.2599283316460002    2.1822598843063639    0.0000000000000000
    -0.0000000000000000   -0.0000000000000000    4.0770255245601170
 Co 
   2
Cartesian
  0.0000000000000000  0.0000000000000000  0.0000000000000000
  0.0000000000000089  1.4548399228709041  2.0385127622800590
