Co 
 1.0000000000000000
     1.2598327235418725   -2.1820942862123989   -0.0000000000000000
     1.2598327235418725    2.1820942862123989    0.0000000000000000
     0.0000000000000000    0.0000000000000000    4.0643395305246068
 Co 
   2
Cartesian
  1.2598327235418725  0.7273647620707892  1.0160848826311517
  1.2598327235418725 -0.7273647620707893  3.0482546478934549
