Co                                      
   1.00000000000000     
     2.4924647474876593    0.0000000000000000   -0.0000000000000000
    -1.2462323737438297    2.1585377893614801    0.0000000000000000
    -0.0000000000000000   -0.0000000000000000    4.0327065196231446
   Co
     2
Direct
  0.0000000000000000 -0.0000000000000000  0.0000000000000000
  0.3333333333333357  0.6666666666666643  0.5000000000000000
 
  0.00000000E+00  0.00000000E+00  0.00000000E+00
  0.00000000E+00  0.00000000E+00  0.00000000E+00
