Co                                      
   1.00000000000000     
     1.2530226839140193   -2.1702989515753996    0.0000000000000000
     1.2530226839140193    2.1702989515753996    0.0000000000000000
     0.0000000000000000    0.0000000000000000    4.0423696985407949
   Co
     2
Direct
  0.3333333333333357  0.6666666666666643  0.2500000000000000
  0.6666666666666643  0.3333333333333357  0.7500000000000000
 
  0.00000000E+00  0.00000000E+00  0.00000000E+00
  0.00000000E+00  0.00000000E+00  0.00000000E+00
