Pt                                      
   1.00000000000000     
     0.0000000000000000    1.8205407390806487    1.8205407390806487
     1.8205407390806485    0.0000000000000000    1.8205407390806487
     1.8205407390806485    1.8205407390806487    0.0000000000000000
   Pt
     1
Direct
  0.0000000000000000  0.0000000000000000  0.0000000000000000
 
  0.00000000E+00  0.00000000E+00  0.00000000E+00
