Co                                      
   1.00000000000000     
     0.0000000000000000    1.8595236101080723    1.8595236101080723
     1.8595236101080723    0.0000000000000000    1.8595236101080723
     1.8595236101080723    1.8595236101080723    0.0000000000000000
   Co
     1
Direct
  0.0000000000000000  0.0000000000000000  0.0000000000000000
 
  0.00000000E+00  0.00000000E+00  0.00000000E+00
