Co 
 1.0000000000000000
     0.0000000000000000    1.8595236101080723    1.8595236101080723
     1.8595236101080723    0.0000000000000000    1.8595236101080723
     1.8595236101080723    1.8595236101080723    0.0000000000000000
 Co 
   1
Cartesian
  0.0000000000000000  0.0000000000000000  0.0000000000000000
