Co 
 1.0000000000000000
     2.4785400728804294    0.0000000000000000   -0.0000000000000000
    -1.2392700364402147    2.1464786674121870    0.0000000000000000
    -0.0000000000000000   -0.0000000000000000    4.0101769628345041
 Co 
   2
Cartesian
  0.0000000000000000  0.0000000000000000  0.0000000000000000
  0.0000000000000088  1.4309857782747863  2.0050884814172520
