Co 
 1.0000000000000000
     1.2391759959652842   -2.1463157845316383   -0.0000000000000000
     1.2391759959652842    2.1463157845316383    0.0000000000000000
     0.0000000000000000    0.0000000000000000    3.9976989734951194
 Co 
   2
Cartesian
  1.2391759959652842  0.7154385948438692  0.9994247433737798
  1.2391759959652842 -0.7154385948438693  2.9982742301213396
