Co 
 1.0000000000000000
     2.5079829756961192   -0.0000000008766159   -0.0000000000009520
    -1.2539914886072312    2.1719769593162792   -0.0000000000004346
    -0.0000000000028913   -0.0000000000034669    8.4945000000000004
 Co 
   1
Cartesian
  0.0000000000000000  0.0000000000000000  0.0000000000000000
