Pt                                      
   1.00000000000000     
     0.0000000000000000    2.0112945376462958    2.0112945376462958
     2.0112945376462954    0.0000000000000000    2.0112945376462958
     2.0112945376462954    2.0112945376462958    0.0000000000000000
   Pt
     1
Direct
  0.0000000000000000  0.0000000000000000  0.0000000000000000
 
  0.00000000E+00  0.00000000E+00  0.00000000E+00
