Co 
 1.0000000000000000
     0.0000000000000000    1.8068955834069003    1.8068955834069003
     1.8068955834069003    0.0000000000000000    1.8068955834069003
     1.8068955834069003    1.8068955834069003    0.0000000000000000
 Co 
   1
Cartesian
  0.0000000000000000  0.0000000000000000  0.0000000000000000
