Co                                      
   1.00000000000000     
     1.2461378049405387   -2.1583739913893685    0.0000000000000000
     1.2461378049405387    2.1583739913893685    0.0000000000000000
     0.0000000000000000    0.0000000000000000    4.0201584277491254
   Co
     2
Direct
  0.3333333333333357  0.6666666666666643  0.2500000000000000
  0.6666666666666643  0.3333333333333357  0.7500000000000000
 
  0.00000000E+00  0.00000000E+00  0.00000000E+00
  0.00000000E+00  0.00000000E+00  0.00000000E+00
