Pt                                      
   1.00000000000000     
     2.6703829582690775    0.0000000000000000    0.0000000000000000
    -1.3351914791345387    2.3126194796940611    0.0000000000000000
     0.0000000000000000    0.0000000000000000    4.6263762423129151
   Pt
     2
Direct
  0.0000000000000000  0.0000000000000000  0.0000000000000000
  0.3333333333333357  0.6666666666666643  0.5000000000000000
 
  0.00000000E+00  0.00000000E+00  0.00000000E+00
  0.00000000E+00  0.00000000E+00  0.00000000E+00
