Pt 
 1.0000000000000000
     2.6703829582690775   -0.0000000000000000   -0.0000000000000000
    -1.3351914791345387    2.3126194796940611   -0.0000000000000000
     0.0000000000000000    0.0000000000000000    4.6263762423129151
 Pt 
   2
Cartesian
  0.0000000000000000  0.0000000000000000  0.0000000000000000
  0.0000000000000095  1.5417463197960353  2.3131881211564576
