Pt 
 1.0000000000000000
    -0.0000000000000000    1.8996946842580684    1.8996946842580684
     1.8996946842580682    0.0000000000000000    1.8996946842580684
     1.8996946842580682    1.8996946842580684   -0.0000000000000000
 Pt 
   1
Cartesian
  0.0000000000000000  0.0000000000000000  0.0000000000000000
