Pt                                      
   1.00000000000000     
     2.4776749097341955    0.0000000000000000    0.0000000000000000
    -1.2388374548670977    2.1457294141491290    0.0000000000000000
     0.0000000000000000    0.0000000000000000    4.2925140392594061
   Pt
     2
Direct
  0.0000000000000000  0.0000000000000000  0.0000000000000000
  0.3333333333333357  0.6666666666666643  0.5000000000000000
 
  0.00000000E+00  0.00000000E+00  0.00000000E+00
  0.00000000E+00  0.00000000E+00  0.00000000E+00
