Pt 
 1.0000000000000000
     2.4776749097341955   -0.0000000000000000   -0.0000000000000000
    -1.2388374548670977    2.1457294141491290   -0.0000000000000000
     0.0000000000000000    0.0000000000000000    4.2925140392594061
 Pt 
   2
Cartesian
  0.0000000000000000  0.0000000000000000  0.0000000000000000
  0.0000000000000088  1.4304862760994144  2.1462570196297031
